data/MCDM/NO_CORR/GEN_FROM_60/15_ITEMS_1000_GEN/K5015W20.KNP.mps
NAME          BLANK   
ROWS
 N  OBJROW
 L  R0000000
COLUMNS
    C0000000  OBJROW     -644.         R0000000  352.        
    C0000001  OBJROW     -371.         R0000000  484.        
    C0000002  OBJROW     -294.         R0000000  910.        
    C0000003  OBJROW     -317.         R0000000  548.        
    C0000004  OBJROW     -536.         R0000000  5.          
    C0000005  OBJROW     -379.         R0000000  662.        
    C0000006  OBJROW     -840.         R0000000  821.        
    C0000007  OBJROW     -352.         R0000000  515.        
    C0000008  OBJROW     -438.         R0000000  137.        
    C0000009  OBJROW     -641.         R0000000  119.        
    C0000010  OBJROW     -922.         R0000000  289.        
    C0000011  OBJROW     -439.         R0000000  450.        
    C0000012  OBJROW     -275.         R0000000  399.        
    C0000013  OBJROW     -814.         R0000000  892.        
    C0000014  OBJROW     -356.         R0000000  883.        
RHS
    RHS       R0000000  15098.      
BOUNDS
 BV BOUND     C0000000  1.          
 BV BOUND     C0000001  1.          
 BV BOUND     C0000002  1.          
 BV BOUND     C0000003  1.          
 BV BOUND     C0000004  1.          
 BV BOUND     C0000005  1.          
 BV BOUND     C0000006  1.          
 BV BOUND     C0000007  1.          
 BV BOUND     C0000008  1.          
 BV BOUND     C0000009  1.          
 BV BOUND     C0000010  1.          
 BV BOUND     C0000011  1.          
 BV BOUND     C0000012  1.          
 BV BOUND     C0000013  1.          
 BV BOUND     C0000014  1.          
ENDATA
