data/MCDM/NO_CORR/GEN_FROM_60/15_ITEMS_1000_GEN/K5015W20.KNP.txt
N 15
M 16
LC 15
LC 16
LC 17
LC 18
LC 19
LC 20
LC 21
LC 22
LC 23
LC 24
LC 25
LC 26
LC 27
LC 28
LC 29
LR 1
LR 2
LR 3
LR 4
LR 5
LR 6
LR 7
LR 8
LR 9
LR 10
LR 11
LR 12
LR 13
LR 14
LR 15
LR 16
LO -644
LO -371
LO -294
LO -317
LO -536
LO -379
LO -840
LO -352
LO -438
LO -641
LO -922
LO -439
LO -275
LO -814
LO -356
OS 1
IC 24
IC 418
IC 41
IC 874
IC 71
IC 611
IC 784
IC 98
IC 114
IC 424
IC 625
IC 641
IC 473
IC 444
IC 186
IB 2914
